; benchmark generated from python API
(set-info :status unknown)
(declare-fun cell_1_3 () Int)
(declare-fun cell_1_4 () Int)
(declare-fun cell_2_1 () Int)
(declare-fun cell_2_5 () Int)
(declare-fun cell_3_7 () Int)
(declare-fun cell_3_8 () Int)
(declare-fun cell_4_6 () Int)
(declare-fun cell_5_9 () Int)
(declare-fun cell_6_2 () Int)
(declare-fun cell_7_5 () Int)
(declare-fun cell_8_8 () Int)
(declare-fun cell_9_3 () Int)
(declare-fun cell_1_1 () Int)
(declare-fun cell_3_1 () Int)
(declare-fun cell_4_1 () Int)
(declare-fun cell_5_1 () Int)
(declare-fun cell_6_1 () Int)
(declare-fun cell_7_1 () Int)
(declare-fun cell_8_1 () Int)
(declare-fun cell_9_1 () Int)
(declare-fun cell_1_2 () Int)
(declare-fun cell_2_2 () Int)
(declare-fun cell_3_2 () Int)
(declare-fun cell_4_2 () Int)
(declare-fun cell_5_2 () Int)
(declare-fun cell_7_2 () Int)
(declare-fun cell_8_2 () Int)
(declare-fun cell_9_2 () Int)
(declare-fun cell_2_3 () Int)
(declare-fun cell_3_3 () Int)
(declare-fun cell_4_3 () Int)
(declare-fun cell_5_3 () Int)
(declare-fun cell_6_3 () Int)
(declare-fun cell_7_3 () Int)
(declare-fun cell_8_3 () Int)
(declare-fun cell_2_4 () Int)
(declare-fun cell_3_4 () Int)
(declare-fun cell_4_4 () Int)
(declare-fun cell_5_4 () Int)
(declare-fun cell_6_4 () Int)
(declare-fun cell_7_4 () Int)
(declare-fun cell_8_4 () Int)
(declare-fun cell_9_4 () Int)
(declare-fun cell_1_5 () Int)
(declare-fun cell_3_5 () Int)
(declare-fun cell_4_5 () Int)
(declare-fun cell_5_5 () Int)
(declare-fun cell_6_5 () Int)
(declare-fun cell_8_5 () Int)
(declare-fun cell_9_5 () Int)
(declare-fun cell_1_6 () Int)
(declare-fun cell_2_6 () Int)
(declare-fun cell_3_6 () Int)
(declare-fun cell_5_6 () Int)
(declare-fun cell_6_6 () Int)
(declare-fun cell_7_6 () Int)
(declare-fun cell_8_6 () Int)
(declare-fun cell_9_6 () Int)
(declare-fun cell_1_7 () Int)
(declare-fun cell_2_7 () Int)
(declare-fun cell_4_7 () Int)
(declare-fun cell_5_7 () Int)
(declare-fun cell_6_7 () Int)
(declare-fun cell_7_7 () Int)
(declare-fun cell_8_7 () Int)
(declare-fun cell_9_7 () Int)
(declare-fun cell_1_8 () Int)
(declare-fun cell_2_8 () Int)
(declare-fun cell_4_8 () Int)
(declare-fun cell_5_8 () Int)
(declare-fun cell_6_8 () Int)
(declare-fun cell_7_8 () Int)
(declare-fun cell_9_8 () Int)
(declare-fun cell_1_9 () Int)
(declare-fun cell_2_9 () Int)
(declare-fun cell_3_9 () Int)
(declare-fun cell_4_9 () Int)
(declare-fun cell_6_9 () Int)
(declare-fun cell_7_9 () Int)
(declare-fun cell_8_9 () Int)
(declare-fun cell_9_9 () Int)
(assert
 (= cell_1_3 2))
(assert
 (= cell_1_4 1))
(assert
 (= cell_2_1 1))
(assert
 (= cell_2_5 2))
(assert
 (= cell_3_7 1))
(assert
 (= cell_3_8 2))
(assert
 (= cell_4_6 1))
(assert
 (= cell_5_9 1))
(assert
 (= cell_6_2 1))
(assert
 (= cell_7_5 1))
(assert
 (= cell_8_8 1))
(assert
 (= cell_9_3 1))
(assert
 (let (($x9397 (= cell_1_1 9)))
 (let (($x7153 (= cell_1_1 8)))
 (let (($x1095 (= cell_1_1 7)))
 (let (($x9850 (= cell_1_1 6)))
 (let (($x9892 (= cell_1_1 5)))
 (let (($x3642 (= cell_1_1 4)))
 (let (($x7418 (= cell_1_1 3)))
 (let (($x2480 (= cell_1_1 2)))
 (let (($x5799 (= cell_1_1 1)))
 (or $x5799 $x2480 $x7418 $x3642 $x9892 $x9850 $x1095 $x7153 $x9397)))))))))))
(assert
 (let (($x8207 (= cell_2_1 1)))
 (or $x8207 (= cell_2_1 2) (= cell_2_1 3) (= cell_2_1 4) (= cell_2_1 5) (= cell_2_1 6) (= cell_2_1 7) (= cell_2_1 8) (= cell_2_1 9))))
(assert
 (let (($x8500 (= cell_3_1 9)))
 (let (($x5579 (= cell_3_1 8)))
 (let (($x2124 (= cell_3_1 7)))
 (let (($x8497 (= cell_3_1 6)))
 (let (($x7958 (= cell_3_1 5)))
 (let (($x1170 (= cell_3_1 4)))
 (let (($x624 (= cell_3_1 3)))
 (let (($x3951 (= cell_3_1 2)))
 (let (($x4972 (= cell_3_1 1)))
 (or $x4972 $x3951 $x624 $x1170 $x7958 $x8497 $x2124 $x5579 $x8500)))))))))))
(assert
 (let (($x6633 (= cell_4_1 9)))
 (let (($x8679 (= cell_4_1 8)))
 (let (($x682 (= cell_4_1 7)))
 (let (($x2818 (= cell_4_1 6)))
 (let (($x6052 (= cell_4_1 5)))
 (let (($x7954 (= cell_4_1 4)))
 (let (($x511 (= cell_4_1 3)))
 (let (($x5964 (= cell_4_1 2)))
 (let (($x2370 (= cell_4_1 1)))
 (or $x2370 $x5964 $x511 $x7954 $x6052 $x2818 $x682 $x8679 $x6633)))))))))))
(assert
 (let (($x2047 (= cell_5_1 9)))
 (let (($x2282 (= cell_5_1 8)))
 (let (($x6927 (= cell_5_1 7)))
 (let (($x6428 (= cell_5_1 6)))
 (let (($x3695 (= cell_5_1 5)))
 (let (($x10156 (= cell_5_1 4)))
 (let (($x2431 (= cell_5_1 3)))
 (let (($x8015 (= cell_5_1 2)))
 (let (($x7569 (= cell_5_1 1)))
 (or $x7569 $x8015 $x2431 $x10156 $x3695 $x6428 $x6927 $x2282 $x2047)))))))))))
(assert
 (let (($x1357 (= cell_6_1 9)))
 (let (($x3113 (= cell_6_1 8)))
 (let (($x2362 (= cell_6_1 7)))
 (let (($x8682 (= cell_6_1 6)))
 (let (($x9754 (= cell_6_1 5)))
 (let (($x992 (= cell_6_1 4)))
 (let (($x913 (= cell_6_1 3)))
 (let (($x8461 (= cell_6_1 2)))
 (let (($x615 (= cell_6_1 1)))
 (or $x615 $x8461 $x913 $x992 $x9754 $x8682 $x2362 $x3113 $x1357)))))))))))
(assert
 (let (($x832 (= cell_7_1 9)))
 (let (($x3922 (= cell_7_1 8)))
 (let (($x4620 (= cell_7_1 7)))
 (let (($x2787 (= cell_7_1 6)))
 (let (($x6457 (= cell_7_1 5)))
 (let (($x882 (= cell_7_1 4)))
 (let (($x2467 (= cell_7_1 3)))
 (let (($x3901 (= cell_7_1 2)))
 (let (($x2989 (= cell_7_1 1)))
 (or $x2989 $x3901 $x2467 $x882 $x6457 $x2787 $x4620 $x3922 $x832)))))))))))
(assert
 (let (($x645 (= cell_8_1 9)))
 (let (($x5676 (= cell_8_1 8)))
 (let (($x8023 (= cell_8_1 7)))
 (let (($x529 (= cell_8_1 6)))
 (let (($x9690 (= cell_8_1 5)))
 (let (($x6039 (= cell_8_1 4)))
 (let (($x3461 (= cell_8_1 3)))
 (let (($x9057 (= cell_8_1 2)))
 (let (($x6604 (= cell_8_1 1)))
 (or $x6604 $x9057 $x3461 $x6039 $x9690 $x529 $x8023 $x5676 $x645)))))))))))
(assert
 (let (($x7361 (= cell_9_1 9)))
 (let (($x9960 (= cell_9_1 8)))
 (let (($x452 (= cell_9_1 7)))
 (let (($x5102 (= cell_9_1 6)))
 (let (($x3165 (= cell_9_1 5)))
 (let (($x2664 (= cell_9_1 4)))
 (let (($x8079 (= cell_9_1 3)))
 (let (($x3075 (= cell_9_1 2)))
 (let (($x8071 (= cell_9_1 1)))
 (or $x8071 $x3075 $x8079 $x2664 $x3165 $x5102 $x452 $x9960 $x7361)))))))))))
(assert
 (let (($x8205 (= cell_1_2 9)))
 (let (($x1628 (= cell_1_2 8)))
 (let (($x6926 (= cell_1_2 7)))
 (let (($x5417 (= cell_1_2 6)))
 (let (($x10012 (= cell_1_2 5)))
 (let (($x2724 (= cell_1_2 4)))
 (let (($x8336 (= cell_1_2 3)))
 (let (($x7901 (= cell_1_2 2)))
 (let (($x346 (= cell_1_2 1)))
 (or $x346 $x7901 $x8336 $x2724 $x10012 $x5417 $x6926 $x1628 $x8205)))))))))))
(assert
 (let (($x9531 (= cell_2_2 9)))
 (let (($x1213 (= cell_2_2 8)))
 (let (($x9719 (= cell_2_2 7)))
 (let (($x6545 (= cell_2_2 6)))
 (let (($x5658 (= cell_2_2 5)))
 (let (($x9868 (= cell_2_2 4)))
 (let (($x1463 (= cell_2_2 3)))
 (let (($x3355 (= cell_2_2 2)))
 (let (($x2916 (= cell_2_2 1)))
 (or $x2916 $x3355 $x1463 $x9868 $x5658 $x6545 $x9719 $x1213 $x9531)))))))))))
(assert
 (let (($x7311 (= cell_3_2 9)))
 (let (($x6534 (= cell_3_2 8)))
 (let (($x159 (= cell_3_2 7)))
 (let (($x2464 (= cell_3_2 6)))
 (let (($x2364 (= cell_3_2 5)))
 (let (($x2247 (= cell_3_2 4)))
 (let (($x9138 (= cell_3_2 3)))
 (let (($x4639 (= cell_3_2 2)))
 (let (($x4263 (= cell_3_2 1)))
 (or $x4263 $x4639 $x9138 $x2247 $x2364 $x2464 $x159 $x6534 $x7311)))))))))))
(assert
 (let (($x8396 (= cell_4_2 9)))
 (let (($x757 (= cell_4_2 8)))
 (let (($x4115 (= cell_4_2 7)))
 (let (($x5209 (= cell_4_2 6)))
 (let (($x10240 (= cell_4_2 5)))
 (let (($x6974 (= cell_4_2 4)))
 (let (($x3976 (= cell_4_2 3)))
 (let (($x6925 (= cell_4_2 2)))
 (let (($x3585 (= cell_4_2 1)))
 (or $x3585 $x6925 $x3976 $x6974 $x10240 $x5209 $x4115 $x757 $x8396)))))))))))
(assert
 (let (($x5432 (= cell_5_2 9)))
 (let (($x584 (= cell_5_2 8)))
 (let (($x4754 (= cell_5_2 7)))
 (let (($x3907 (= cell_5_2 6)))
 (let (($x2719 (= cell_5_2 5)))
 (let (($x1481 (= cell_5_2 4)))
 (let (($x6264 (= cell_5_2 3)))
 (let (($x1646 (= cell_5_2 2)))
 (let (($x10127 (= cell_5_2 1)))
 (or $x10127 $x1646 $x6264 $x1481 $x2719 $x3907 $x4754 $x584 $x5432)))))))))))
(assert
 (let (($x4182 (= cell_6_2 1)))
 (or $x4182 (= cell_6_2 2) (= cell_6_2 3) (= cell_6_2 4) (= cell_6_2 5) (= cell_6_2 6) (= cell_6_2 7) (= cell_6_2 8) (= cell_6_2 9))))
(assert
 (let (($x6975 (= cell_7_2 9)))
 (let (($x4256 (= cell_7_2 8)))
 (let (($x1053 (= cell_7_2 7)))
 (let (($x3658 (= cell_7_2 6)))
 (let (($x5890 (= cell_7_2 5)))
 (let (($x1488 (= cell_7_2 4)))
 (let (($x9351 (= cell_7_2 3)))
 (let (($x3680 (= cell_7_2 2)))
 (let (($x4079 (= cell_7_2 1)))
 (or $x4079 $x3680 $x9351 $x1488 $x5890 $x3658 $x1053 $x4256 $x6975)))))))))))
(assert
 (let (($x7415 (= cell_8_2 9)))
 (let (($x1634 (= cell_8_2 8)))
 (let (($x6526 (= cell_8_2 7)))
 (let (($x1022 (= cell_8_2 6)))
 (let (($x6615 (= cell_8_2 5)))
 (let (($x7363 (= cell_8_2 4)))
 (let (($x7916 (= cell_8_2 3)))
 (let (($x1576 (= cell_8_2 2)))
 (let (($x4205 (= cell_8_2 1)))
 (or $x4205 $x1576 $x7916 $x7363 $x6615 $x1022 $x6526 $x1634 $x7415)))))))))))
(assert
 (let (($x5469 (= cell_9_2 9)))
 (let (($x9672 (= cell_9_2 8)))
 (let (($x1913 (= cell_9_2 7)))
 (let (($x2627 (= cell_9_2 6)))
 (let (($x2601 (= cell_9_2 5)))
 (let (($x8831 (= cell_9_2 4)))
 (let (($x3673 (= cell_9_2 3)))
 (let (($x308 (= cell_9_2 2)))
 (let (($x384 (= cell_9_2 1)))
 (or $x384 $x308 $x3673 $x8831 $x2601 $x2627 $x1913 $x9672 $x5469)))))))))))
(assert
 (let (($x1300 (= cell_1_3 2)))
 (or (= cell_1_3 1) $x1300 (= cell_1_3 3) (= cell_1_3 4) (= cell_1_3 5) (= cell_1_3 6) (= cell_1_3 7) (= cell_1_3 8) (= cell_1_3 9))))
(assert
 (let (($x5926 (= cell_2_3 9)))
 (let (($x3083 (= cell_2_3 8)))
 (let (($x3513 (= cell_2_3 7)))
 (let (($x10098 (= cell_2_3 6)))
 (let (($x840 (= cell_2_3 5)))
 (let (($x5570 (= cell_2_3 4)))
 (let (($x157 (= cell_2_3 3)))
 (let (($x5008 (= cell_2_3 2)))
 (let (($x4585 (= cell_2_3 1)))
 (or $x4585 $x5008 $x157 $x5570 $x840 $x10098 $x3513 $x3083 $x5926)))))))))))
(assert
 (let (($x3684 (= cell_3_3 9)))
 (let (($x399 (= cell_3_3 8)))
 (let (($x9076 (= cell_3_3 7)))
 (let (($x7739 (= cell_3_3 6)))
 (let (($x1981 (= cell_3_3 5)))
 (let (($x7494 (= cell_3_3 4)))
 (let (($x4134 (= cell_3_3 3)))
 (let (($x7161 (= cell_3_3 2)))
 (let (($x7112 (= cell_3_3 1)))
 (or $x7112 $x7161 $x4134 $x7494 $x1981 $x7739 $x9076 $x399 $x3684)))))))))))
(assert
 (let (($x3614 (= cell_4_3 9)))
 (let (($x3491 (= cell_4_3 8)))
 (let (($x6973 (= cell_4_3 7)))
 (let (($x1992 (= cell_4_3 6)))
 (let (($x8790 (= cell_4_3 5)))
 (let (($x2896 (= cell_4_3 4)))
 (let (($x4504 (= cell_4_3 3)))
 (let (($x3351 (= cell_4_3 2)))
 (let (($x2352 (= cell_4_3 1)))
 (or $x2352 $x3351 $x4504 $x2896 $x8790 $x1992 $x6973 $x3491 $x3614)))))))))))
(assert
 (let (($x4007 (= cell_5_3 9)))
 (let (($x5009 (= cell_5_3 8)))
 (let (($x5584 (= cell_5_3 7)))
 (let (($x9253 (= cell_5_3 6)))
 (let (($x2118 (= cell_5_3 5)))
 (let (($x8956 (= cell_5_3 4)))
 (let (($x2065 (= cell_5_3 3)))
 (let (($x2056 (= cell_5_3 2)))
 (let (($x9867 (= cell_5_3 1)))
 (or $x9867 $x2056 $x2065 $x8956 $x2118 $x9253 $x5584 $x5009 $x4007)))))))))))
(assert
 (let (($x2964 (= cell_6_3 9)))
 (let (($x5425 (= cell_6_3 8)))
 (let (($x3911 (= cell_6_3 7)))
 (let (($x307 (= cell_6_3 6)))
 (let (($x8045 (= cell_6_3 5)))
 (let (($x2001 (= cell_6_3 4)))
 (let (($x5973 (= cell_6_3 3)))
 (let (($x9955 (= cell_6_3 2)))
 (let (($x5017 (= cell_6_3 1)))
 (or $x5017 $x9955 $x5973 $x2001 $x8045 $x307 $x3911 $x5425 $x2964)))))))))))
(assert
 (let (($x7486 (= cell_7_3 9)))
 (let (($x3331 (= cell_7_3 8)))
 (let (($x761 (= cell_7_3 7)))
 (let (($x942 (= cell_7_3 6)))
 (let (($x7012 (= cell_7_3 5)))
 (let (($x5229 (= cell_7_3 4)))
 (let (($x3441 (= cell_7_3 3)))
 (let (($x10200 (= cell_7_3 2)))
 (let (($x10034 (= cell_7_3 1)))
 (or $x10034 $x10200 $x3441 $x5229 $x7012 $x942 $x761 $x3331 $x7486)))))))))))
(assert
 (let (($x6886 (= cell_8_3 9)))
 (let (($x8660 (= cell_8_3 8)))
 (let (($x448 (= cell_8_3 7)))
 (let (($x5589 (= cell_8_3 6)))
 (let (($x8052 (= cell_8_3 5)))
 (let (($x7818 (= cell_8_3 4)))
 (let (($x5082 (= cell_8_3 3)))
 (let (($x4537 (= cell_8_3 2)))
 (let (($x7270 (= cell_8_3 1)))
 (or $x7270 $x4537 $x5082 $x7818 $x8052 $x5589 $x448 $x8660 $x6886)))))))))))
(assert
 (let (($x894 (= cell_9_3 1)))
 (or $x894 (= cell_9_3 2) (= cell_9_3 3) (= cell_9_3 4) (= cell_9_3 5) (= cell_9_3 6) (= cell_9_3 7) (= cell_9_3 8) (= cell_9_3 9))))
(assert
 (let (($x2628 (= cell_1_4 1)))
 (or $x2628 (= cell_1_4 2) (= cell_1_4 3) (= cell_1_4 4) (= cell_1_4 5) (= cell_1_4 6) (= cell_1_4 7) (= cell_1_4 8) (= cell_1_4 9))))
(assert
 (let (($x4194 (= cell_2_4 9)))
 (let (($x5428 (= cell_2_4 8)))
 (let (($x644 (= cell_2_4 7)))
 (let (($x4713 (= cell_2_4 6)))
 (let (($x4012 (= cell_2_4 5)))
 (let (($x8313 (= cell_2_4 4)))
 (let (($x1880 (= cell_2_4 3)))
 (let (($x578 (= cell_2_4 2)))
 (let (($x8227 (= cell_2_4 1)))
 (or $x8227 $x578 $x1880 $x8313 $x4012 $x4713 $x644 $x5428 $x4194)))))))))))
(assert
 (let (($x8608 (= cell_3_4 9)))
 (let (($x4911 (= cell_3_4 8)))
 (let (($x7567 (= cell_3_4 7)))
 (let (($x1063 (= cell_3_4 6)))
 (let (($x3954 (= cell_3_4 5)))
 (let (($x2159 (= cell_3_4 4)))
 (let (($x1406 (= cell_3_4 3)))
 (let (($x6665 (= cell_3_4 2)))
 (let (($x5694 (= cell_3_4 1)))
 (or $x5694 $x6665 $x1406 $x2159 $x3954 $x1063 $x7567 $x4911 $x8608)))))))))))
(assert
 (let (($x2783 (= cell_4_4 9)))
 (let (($x3967 (= cell_4_4 8)))
 (let (($x8036 (= cell_4_4 7)))
 (let (($x5960 (= cell_4_4 6)))
 (let (($x1512 (= cell_4_4 5)))
 (let (($x10003 (= cell_4_4 4)))
 (let (($x9160 (= cell_4_4 3)))
 (let (($x2462 (= cell_4_4 2)))
 (let (($x8123 (= cell_4_4 1)))
 (or $x8123 $x2462 $x9160 $x10003 $x1512 $x5960 $x8036 $x3967 $x2783)))))))))))
(assert
 (let (($x960 (= cell_5_4 9)))
 (let (($x4653 (= cell_5_4 8)))
 (let (($x8261 (= cell_5_4 7)))
 (let (($x5080 (= cell_5_4 6)))
 (let (($x3265 (= cell_5_4 5)))
 (let (($x6947 (= cell_5_4 4)))
 (let (($x2509 (= cell_5_4 3)))
 (let (($x1796 (= cell_5_4 2)))
 (let (($x9323 (= cell_5_4 1)))
 (or $x9323 $x1796 $x2509 $x6947 $x3265 $x5080 $x8261 $x4653 $x960)))))))))))
(assert
 (let (($x6004 (= cell_6_4 1)))
 (or $x6004 (= cell_6_4 2) (= cell_6_4 3) (= cell_6_4 4) (= cell_6_4 5) (= cell_6_4 6) (= cell_6_4 7) (= cell_6_4 8) (= cell_6_4 9))))
(assert
 (let (($x8272 (= cell_7_4 9)))
 (let (($x8228 (= cell_7_4 8)))
 (let (($x1750 (= cell_7_4 7)))
 (let (($x8069 (= cell_7_4 6)))
 (let (($x7011 (= cell_7_4 5)))
 (let (($x9781 (= cell_7_4 4)))
 (let (($x5355 (= cell_7_4 3)))
 (let (($x8634 (= cell_7_4 2)))
 (let (($x4556 (= cell_7_4 1)))
 (or $x4556 $x8634 $x5355 $x9781 $x7011 $x8069 $x1750 $x8228 $x8272)))))))))))
(assert
 (let (($x8625 (= cell_8_4 9)))
 (let (($x337 (= cell_8_4 8)))
 (let (($x1508 (= cell_8_4 7)))
 (let (($x6486 (= cell_8_4 6)))
 (let (($x8167 (= cell_8_4 5)))
 (let (($x4227 (= cell_8_4 4)))
 (let (($x2656 (= cell_8_4 3)))
 (let (($x8554 (= cell_8_4 2)))
 (let (($x2409 (= cell_8_4 1)))
 (or $x2409 $x8554 $x2656 $x4227 $x8167 $x6486 $x1508 $x337 $x8625)))))))))))
(assert
 (let (($x7467 (= cell_9_4 1)))
 (or $x7467 (= cell_9_4 2) (= cell_9_4 3) (= cell_9_4 4) (= cell_9_4 5) (= cell_9_4 6) (= cell_9_4 7) (= cell_9_4 8) (= cell_9_4 9))))
(assert
 (let (($x1749 (= cell_1_5 9)))
 (let (($x6059 (= cell_1_5 8)))
 (let (($x9869 (= cell_1_5 7)))
 (let (($x5176 (= cell_1_5 6)))
 (let (($x6921 (= cell_1_5 5)))
 (let (($x2990 (= cell_1_5 4)))
 (let (($x1976 (= cell_1_5 3)))
 (let (($x9667 (= cell_1_5 2)))
 (let (($x3721 (= cell_1_5 1)))
 (or $x3721 $x9667 $x1976 $x2990 $x6921 $x5176 $x9869 $x6059 $x1749)))))))))))
(assert
 (let (($x2949 (= cell_2_5 2)))
 (or (= cell_2_5 1) $x2949 (= cell_2_5 3) (= cell_2_5 4) (= cell_2_5 5) (= cell_2_5 6) (= cell_2_5 7) (= cell_2_5 8) (= cell_2_5 9))))
(assert
 (let (($x9775 (= cell_3_5 9)))
 (let (($x1395 (= cell_3_5 8)))
 (let (($x1187 (= cell_3_5 7)))
 (let (($x7230 (= cell_3_5 6)))
 (let (($x312 (= cell_3_5 5)))
 (let (($x6066 (= cell_3_5 4)))
 (let (($x98 (= cell_3_5 3)))
 (let (($x9062 (= cell_3_5 2)))
 (let (($x4387 (= cell_3_5 1)))
 (or $x4387 $x9062 $x98 $x6066 $x312 $x7230 $x1187 $x1395 $x9775)))))))))))
(assert
 (let (($x4727 (= cell_4_5 9)))
 (let (($x3403 (= cell_4_5 8)))
 (let (($x2747 (= cell_4_5 7)))
 (let (($x5592 (= cell_4_5 6)))
 (let (($x6392 (= cell_4_5 5)))
 (let (($x2417 (= cell_4_5 4)))
 (let (($x4413 (= cell_4_5 3)))
 (let (($x6296 (= cell_4_5 2)))
 (let (($x5157 (= cell_4_5 1)))
 (or $x5157 $x6296 $x4413 $x2417 $x6392 $x5592 $x2747 $x3403 $x4727)))))))))))
(assert
 (let (($x6142 (= cell_5_5 9)))
 (let (($x4163 (= cell_5_5 8)))
 (let (($x9709 (= cell_5_5 7)))
 (let (($x2500 (= cell_5_5 6)))
 (let (($x3231 (= cell_5_5 5)))
 (let (($x7386 (= cell_5_5 4)))
 (let (($x6074 (= cell_5_5 3)))
 (let (($x8238 (= cell_5_5 2)))
 (let (($x4744 (= cell_5_5 1)))
 (or $x4744 $x8238 $x6074 $x7386 $x3231 $x2500 $x9709 $x4163 $x6142)))))))))))
(assert
 (let (($x862 (= cell_6_5 9)))
 (let (($x5487 (= cell_6_5 8)))
 (let (($x8875 (= cell_6_5 7)))
 (let (($x6411 (= cell_6_5 6)))
 (let (($x8208 (= cell_6_5 5)))
 (let (($x6510 (= cell_6_5 4)))
 (let (($x2931 (= cell_6_5 3)))
 (let (($x2782 (= cell_6_5 2)))
 (let (($x267 (= cell_6_5 1)))
 (or $x267 $x2782 $x2931 $x6510 $x8208 $x6411 $x8875 $x5487 $x862)))))))))))
(assert
 (let (($x1476 (= cell_7_5 1)))
 (or $x1476 (= cell_7_5 2) (= cell_7_5 3) (= cell_7_5 4) (= cell_7_5 5) (= cell_7_5 6) (= cell_7_5 7) (= cell_7_5 8) (= cell_7_5 9))))
(assert
 (let (($x1834 (= cell_8_5 9)))
 (let (($x8919 (= cell_8_5 8)))
 (let (($x1776 (= cell_8_5 7)))
 (let (($x163 (= cell_8_5 6)))
 (let (($x536 (= cell_8_5 5)))
 (let (($x7609 (= cell_8_5 4)))
 (let (($x7722 (= cell_8_5 3)))
 (let (($x342 (= cell_8_5 2)))
 (let (($x673 (= cell_8_5 1)))
 (or $x673 $x342 $x7722 $x7609 $x536 $x163 $x1776 $x8919 $x1834)))))))))))
(assert
 (let (($x2901 (= cell_9_5 2)))
 (let (($x8925 (= cell_9_5 1)))
 (or $x8925 $x2901 (= cell_9_5 3) (= cell_9_5 4) (= cell_9_5 5) (= cell_9_5 6) (= cell_9_5 7) (= cell_9_5 8) (= cell_9_5 9)))))
(assert
 (let (($x5159 (= cell_1_6 9)))
 (let (($x6195 (= cell_1_6 8)))
 (let (($x1854 (= cell_1_6 7)))
 (let (($x3452 (= cell_1_6 6)))
 (let (($x8280 (= cell_1_6 5)))
 (let (($x5201 (= cell_1_6 4)))
 (let (($x3794 (= cell_1_6 3)))
 (let (($x4720 (= cell_1_6 2)))
 (let (($x7616 (= cell_1_6 1)))
 (or $x7616 $x4720 $x3794 $x5201 $x8280 $x3452 $x1854 $x6195 $x5159)))))))))))
(assert
 (let (($x5863 (= cell_2_6 9)))
 (let (($x9343 (= cell_2_6 8)))
 (let (($x2820 (= cell_2_6 7)))
 (let (($x3150 (= cell_2_6 6)))
 (let (($x10111 (= cell_2_6 5)))
 (let (($x828 (= cell_2_6 4)))
 (let (($x6433 (= cell_2_6 3)))
 (let (($x1579 (= cell_2_6 2)))
 (let (($x3157 (= cell_2_6 1)))
 (or $x3157 $x1579 $x6433 $x828 $x10111 $x3150 $x2820 $x9343 $x5863)))))))))))
(assert
 (let (($x2987 (= cell_3_6 9)))
 (let (($x7491 (= cell_3_6 8)))
 (let (($x7348 (= cell_3_6 7)))
 (let (($x6158 (= cell_3_6 6)))
 (let (($x6782 (= cell_3_6 5)))
 (let (($x8616 (= cell_3_6 4)))
 (let (($x5334 (= cell_3_6 3)))
 (let (($x6576 (= cell_3_6 2)))
 (let (($x9788 (= cell_3_6 1)))
 (or $x9788 $x6576 $x5334 $x8616 $x6782 $x6158 $x7348 $x7491 $x2987)))))))))))
(assert
 (let (($x3122 (= cell_4_6 1)))
 (or $x3122 (= cell_4_6 2) (= cell_4_6 3) (= cell_4_6 4) (= cell_4_6 5) (= cell_4_6 6) (= cell_4_6 7) (= cell_4_6 8) (= cell_4_6 9))))
(assert
 (let (($x9707 (= cell_5_6 9)))
 (let (($x5686 (= cell_5_6 8)))
 (let (($x6790 (= cell_5_6 7)))
 (let (($x9381 (= cell_5_6 6)))
 (let (($x6524 (= cell_5_6 5)))
 (let (($x8315 (= cell_5_6 4)))
 (let (($x2013 (= cell_5_6 3)))
 (let (($x2201 (= cell_5_6 2)))
 (let (($x299 (= cell_5_6 1)))
 (or $x299 $x2201 $x2013 $x8315 $x6524 $x9381 $x6790 $x5686 $x9707)))))))))))
(assert
 (let (($x6897 (= cell_6_6 1)))
 (or $x6897 (= cell_6_6 2) (= cell_6_6 3) (= cell_6_6 4) (= cell_6_6 5) (= cell_6_6 6) (= cell_6_6 7) (= cell_6_6 8) (= cell_6_6 9))))
(assert
 (let (($x8916 (= cell_7_6 1)))
 (or $x8916 (= cell_7_6 2) (= cell_7_6 3) (= cell_7_6 4) (= cell_7_6 5) (= cell_7_6 6) (= cell_7_6 7) (= cell_7_6 8) (= cell_7_6 9))))
(assert
 (let (($x8823 (= cell_8_6 9)))
 (let (($x9198 (= cell_8_6 8)))
 (let (($x8362 (= cell_8_6 7)))
 (let (($x2418 (= cell_8_6 6)))
 (let (($x2256 (= cell_8_6 5)))
 (let (($x9563 (= cell_8_6 4)))
 (let (($x57 (= cell_8_6 3)))
 (let (($x4164 (= cell_8_6 2)))
 (let (($x9571 (= cell_8_6 1)))
 (or $x9571 $x4164 $x57 $x9563 $x2256 $x2418 $x8362 $x9198 $x8823)))))))))))
(assert
 (let (($x1129 (= cell_9_6 1)))
 (or $x1129 (= cell_9_6 2) (= cell_9_6 3) (= cell_9_6 4) (= cell_9_6 5) (= cell_9_6 6) (= cell_9_6 7) (= cell_9_6 8) (= cell_9_6 9))))
(assert
 (let (($x8149 (= cell_1_7 9)))
 (let (($x9268 (= cell_1_7 8)))
 (let (($x17 (= cell_1_7 7)))
 (let (($x6257 (= cell_1_7 6)))
 (let (($x304 (= cell_1_7 5)))
 (let (($x9215 (= cell_1_7 4)))
 (let (($x9853 (= cell_1_7 3)))
 (let (($x5232 (= cell_1_7 2)))
 (let (($x2363 (= cell_1_7 1)))
 (or $x2363 $x5232 $x9853 $x9215 $x304 $x6257 $x17 $x9268 $x8149)))))))))))
(assert
 (let (($x345 (= cell_2_7 9)))
 (let (($x8887 (= cell_2_7 8)))
 (let (($x1629 (= cell_2_7 7)))
 (let (($x716 (= cell_2_7 6)))
 (let (($x7213 (= cell_2_7 5)))
 (let (($x799 (= cell_2_7 4)))
 (let (($x7753 (= cell_2_7 3)))
 (let (($x7918 (= cell_2_7 2)))
 (let (($x6359 (= cell_2_7 1)))
 (or $x6359 $x7918 $x7753 $x799 $x7213 $x716 $x1629 $x8887 $x345)))))))))))
(assert
 (let (($x5802 (= cell_3_7 1)))
 (or $x5802 (= cell_3_7 2) (= cell_3_7 3) (= cell_3_7 4) (= cell_3_7 5) (= cell_3_7 6) (= cell_3_7 7) (= cell_3_7 8) (= cell_3_7 9))))
(assert
 (let (($x9877 (= cell_4_7 9)))
 (let (($x8488 (= cell_4_7 8)))
 (let (($x7618 (= cell_4_7 7)))
 (let (($x2641 (= cell_4_7 6)))
 (let (($x6821 (= cell_4_7 5)))
 (let (($x8844 (= cell_4_7 4)))
 (let (($x936 (= cell_4_7 3)))
 (let (($x48 (= cell_4_7 2)))
 (let (($x5141 (= cell_4_7 1)))
 (or $x5141 $x48 $x936 $x8844 $x6821 $x2641 $x7618 $x8488 $x9877)))))))))))
(assert
 (let (($x3105 (= cell_5_7 9)))
 (let (($x1057 (= cell_5_7 8)))
 (let (($x9801 (= cell_5_7 7)))
 (let (($x8130 (= cell_5_7 6)))
 (let (($x5270 (= cell_5_7 5)))
 (let (($x4833 (= cell_5_7 4)))
 (let (($x9797 (= cell_5_7 3)))
 (let (($x4458 (= cell_5_7 2)))
 (let (($x7657 (= cell_5_7 1)))
 (or $x7657 $x4458 $x9797 $x4833 $x5270 $x8130 $x9801 $x1057 $x3105)))))))))))
(assert
 (let (($x1448 (= cell_6_7 1)))
 (or $x1448 (= cell_6_7 2) (= cell_6_7 3) (= cell_6_7 4) (= cell_6_7 5) (= cell_6_7 6) (= cell_6_7 7) (= cell_6_7 8) (= cell_6_7 9))))
(assert
 (let (($x8472 (= cell_7_7 9)))
 (let (($x4732 (= cell_7_7 8)))
 (let (($x914 (= cell_7_7 7)))
 (let (($x7128 (= cell_7_7 6)))
 (let (($x3499 (= cell_7_7 5)))
 (let (($x9902 (= cell_7_7 4)))
 (let (($x7699 (= cell_7_7 3)))
 (let (($x722 (= cell_7_7 2)))
 (let (($x4831 (= cell_7_7 1)))
 (or $x4831 $x722 $x7699 $x9902 $x3499 $x7128 $x914 $x4732 $x8472)))))))))))
(assert
 (let (($x4037 (= cell_8_7 9)))
 (let (($x7239 (= cell_8_7 8)))
 (let (($x7807 (= cell_8_7 7)))
 (let (($x7701 (= cell_8_7 6)))
 (let (($x3657 (= cell_8_7 5)))
 (let (($x2484 (= cell_8_7 4)))
 (let (($x121 (= cell_8_7 3)))
 (let (($x1075 (= cell_8_7 2)))
 (let (($x7999 (= cell_8_7 1)))
 (or $x7999 $x1075 $x121 $x2484 $x3657 $x7701 $x7807 $x7239 $x4037)))))))))))
(assert
 (let (($x4836 (= cell_9_7 1)))
 (or $x4836 (= cell_9_7 2) (= cell_9_7 3) (= cell_9_7 4) (= cell_9_7 5) (= cell_9_7 6) (= cell_9_7 7) (= cell_9_7 8) (= cell_9_7 9))))
(assert
 (let (($x7737 (= cell_1_8 9)))
 (let (($x8367 (= cell_1_8 8)))
 (let (($x6540 (= cell_1_8 7)))
 (let (($x4712 (= cell_1_8 6)))
 (let (($x8393 (= cell_1_8 5)))
 (let (($x4202 (= cell_1_8 4)))
 (let (($x3786 (= cell_1_8 3)))
 (let (($x9299 (= cell_1_8 2)))
 (let (($x684 (= cell_1_8 1)))
 (or $x684 $x9299 $x3786 $x4202 $x8393 $x4712 $x6540 $x8367 $x7737)))))))))))
(assert
 (let (($x10196 (= cell_2_8 9)))
 (let (($x7586 (= cell_2_8 8)))
 (let (($x3837 (= cell_2_8 7)))
 (let (($x5421 (= cell_2_8 6)))
 (let (($x7085 (= cell_2_8 5)))
 (let (($x1542 (= cell_2_8 4)))
 (let (($x2873 (= cell_2_8 3)))
 (let (($x7027 (= cell_2_8 2)))
 (let (($x1841 (= cell_2_8 1)))
 (or $x1841 $x7027 $x2873 $x1542 $x7085 $x5421 $x3837 $x7586 $x10196)))))))))))
(assert
 (let (($x3133 (= cell_3_8 2)))
 (or (= cell_3_8 1) $x3133 (= cell_3_8 3) (= cell_3_8 4) (= cell_3_8 5) (= cell_3_8 6) (= cell_3_8 7) (= cell_3_8 8) (= cell_3_8 9))))
(assert
 (let (($x5596 (= cell_4_8 9)))
 (let (($x2850 (= cell_4_8 8)))
 (let (($x2928 (= cell_4_8 7)))
 (let (($x9886 (= cell_4_8 6)))
 (let (($x10022 (= cell_4_8 5)))
 (let (($x5402 (= cell_4_8 4)))
 (let (($x1479 (= cell_4_8 3)))
 (let (($x4539 (= cell_4_8 2)))
 (let (($x1810 (= cell_4_8 1)))
 (or $x1810 $x4539 $x1479 $x5402 $x10022 $x9886 $x2928 $x2850 $x5596)))))))))))
(assert
 (let (($x3088 (= cell_5_8 9)))
 (let (($x7703 (= cell_5_8 8)))
 (let (($x147 (= cell_5_8 7)))
 (let (($x6126 (= cell_5_8 6)))
 (let (($x2244 (= cell_5_8 5)))
 (let (($x5822 (= cell_5_8 4)))
 (let (($x6715 (= cell_5_8 3)))
 (let (($x5493 (= cell_5_8 2)))
 (let (($x618 (= cell_5_8 1)))
 (or $x618 $x5493 $x6715 $x5822 $x2244 $x6126 $x147 $x7703 $x3088)))))))))))
(assert
 (let (($x5600 (= cell_6_8 9)))
 (let (($x189 (= cell_6_8 8)))
 (let (($x7791 (= cell_6_8 7)))
 (let (($x9046 (= cell_6_8 6)))
 (let (($x7599 (= cell_6_8 5)))
 (let (($x3910 (= cell_6_8 4)))
 (let (($x8278 (= cell_6_8 3)))
 (let (($x7123 (= cell_6_8 2)))
 (let (($x9715 (= cell_6_8 1)))
 (or $x9715 $x7123 $x8278 $x3910 $x7599 $x9046 $x7791 $x189 $x5600)))))))))))
(assert
 (let (($x2106 (= cell_7_8 9)))
 (let (($x1689 (= cell_7_8 8)))
 (let (($x5587 (= cell_7_8 7)))
 (let (($x844 (= cell_7_8 6)))
 (let (($x5301 (= cell_7_8 5)))
 (let (($x3857 (= cell_7_8 4)))
 (let (($x6236 (= cell_7_8 3)))
 (let (($x3616 (= cell_7_8 2)))
 (let (($x2559 (= cell_7_8 1)))
 (or $x2559 $x3616 $x6236 $x3857 $x5301 $x844 $x5587 $x1689 $x2106)))))))))))
(assert
 (let (($x427 (= cell_8_8 1)))
 (or $x427 (= cell_8_8 2) (= cell_8_8 3) (= cell_8_8 4) (= cell_8_8 5) (= cell_8_8 6) (= cell_8_8 7) (= cell_8_8 8) (= cell_8_8 9))))
(assert
 (let (($x2844 (= cell_9_8 2)))
 (let (($x6844 (= cell_9_8 1)))
 (or $x6844 $x2844 (= cell_9_8 3) (= cell_9_8 4) (= cell_9_8 5) (= cell_9_8 6) (= cell_9_8 7) (= cell_9_8 8) (= cell_9_8 9)))))
(assert
 (let (($x8386 (= cell_1_9 9)))
 (let (($x2063 (= cell_1_9 8)))
 (let (($x861 (= cell_1_9 7)))
 (let (($x4954 (= cell_1_9 6)))
 (let (($x533 (= cell_1_9 5)))
 (let (($x4536 (= cell_1_9 4)))
 (let (($x5481 (= cell_1_9 3)))
 (let (($x5629 (= cell_1_9 2)))
 (let (($x4820 (= cell_1_9 1)))
 (or $x4820 $x5629 $x5481 $x4536 $x533 $x4954 $x861 $x2063 $x8386)))))))))))
(assert
 (let (($x2529 (= cell_2_9 9)))
 (let (($x184 (= cell_2_9 8)))
 (let (($x6528 (= cell_2_9 7)))
 (let (($x5662 (= cell_2_9 6)))
 (let (($x6447 (= cell_2_9 5)))
 (let (($x2319 (= cell_2_9 4)))
 (let (($x7914 (= cell_2_9 3)))
 (let (($x6692 (= cell_2_9 2)))
 (let (($x2968 (= cell_2_9 1)))
 (or $x2968 $x6692 $x7914 $x2319 $x6447 $x5662 $x6528 $x184 $x2529)))))))))))
(assert
 (let (($x5496 (= cell_3_9 9)))
 (let (($x1996 (= cell_3_9 8)))
 (let (($x8529 (= cell_3_9 7)))
 (let (($x2673 (= cell_3_9 6)))
 (let (($x9442 (= cell_3_9 5)))
 (let (($x4145 (= cell_3_9 4)))
 (let (($x2526 (= cell_3_9 3)))
 (let (($x4865 (= cell_3_9 2)))
 (let (($x6352 (= cell_3_9 1)))
 (or $x6352 $x4865 $x2526 $x4145 $x9442 $x2673 $x8529 $x1996 $x5496)))))))))))
(assert
 (let (($x6307 (= cell_4_9 9)))
 (let (($x1505 (= cell_4_9 8)))
 (let (($x4454 (= cell_4_9 7)))
 (let (($x4496 (= cell_4_9 6)))
 (let (($x6407 (= cell_4_9 5)))
 (let (($x1883 (= cell_4_9 4)))
 (let (($x3301 (= cell_4_9 3)))
 (let (($x3464 (= cell_4_9 2)))
 (let (($x7634 (= cell_4_9 1)))
 (or $x7634 $x3464 $x3301 $x1883 $x6407 $x4496 $x4454 $x1505 $x6307)))))))))))
(assert
 (let (($x8984 (= cell_5_9 1)))
 (or $x8984 (= cell_5_9 2) (= cell_5_9 3) (= cell_5_9 4) (= cell_5_9 5) (= cell_5_9 6) (= cell_5_9 7) (= cell_5_9 8) (= cell_5_9 9))))
(assert
 (let (($x7410 (= cell_6_9 1)))
 (or $x7410 (= cell_6_9 2) (= cell_6_9 3) (= cell_6_9 4) (= cell_6_9 5) (= cell_6_9 6) (= cell_6_9 7) (= cell_6_9 8) (= cell_6_9 9))))
(assert
 (let (($x8127 (= cell_7_9 9)))
 (let (($x3806 (= cell_7_9 8)))
 (let (($x5648 (= cell_7_9 7)))
 (let (($x6446 (= cell_7_9 6)))
 (let (($x6915 (= cell_7_9 5)))
 (let (($x656 (= cell_7_9 4)))
 (let (($x9378 (= cell_7_9 3)))
 (let (($x6128 (= cell_7_9 2)))
 (let (($x6260 (= cell_7_9 1)))
 (or $x6260 $x6128 $x9378 $x656 $x6915 $x6446 $x5648 $x3806 $x8127)))))))))))
(assert
 (let (($x6024 (= cell_8_9 1)))
 (or $x6024 (= cell_8_9 2) (= cell_8_9 3) (= cell_8_9 4) (= cell_8_9 5) (= cell_8_9 6) (= cell_8_9 7) (= cell_8_9 8) (= cell_8_9 9))))
(assert
 (let (($x3957 (= cell_9_9 1)))
 (or $x3957 (= cell_9_9 2) (= cell_9_9 3) (= cell_9_9 4) (= cell_9_9 5) (= cell_9_9 6) (= cell_9_9 7) (= cell_9_9 8) (= cell_9_9 9))))
(assert
 (and (distinct cell_1_1 cell_1_2 cell_1_3 cell_1_4 cell_1_5 cell_1_6 cell_1_7 cell_1_8 cell_1_9) true))
(assert
 (and (distinct cell_2_1 cell_2_2 cell_2_3 cell_2_4 cell_2_5 cell_2_6 cell_2_7 cell_2_8 cell_2_9) true))
(assert
 (and (distinct cell_3_1 cell_3_2 cell_3_3 cell_3_4 cell_3_5 cell_3_6 cell_3_7 cell_3_8 cell_3_9) true))
(assert
 (and (distinct cell_4_1 cell_4_2 cell_4_3 cell_4_4 cell_4_5 cell_4_6 cell_4_7 cell_4_8 cell_4_9) true))
(assert
 (and (distinct cell_5_1 cell_5_2 cell_5_3 cell_5_4 cell_5_5 cell_5_6 cell_5_7 cell_5_8 cell_5_9) true))
(assert
 (and (distinct cell_6_1 cell_6_2 cell_6_3 cell_6_4 cell_6_5 cell_6_6 cell_6_7 cell_6_8 cell_6_9) true))
(assert
 (and (distinct cell_7_1 cell_7_2 cell_7_3 cell_7_4 cell_7_5 cell_7_6 cell_7_7 cell_7_8 cell_7_9) true))
(assert
 (and (distinct cell_8_1 cell_8_2 cell_8_3 cell_8_4 cell_8_5 cell_8_6 cell_8_7 cell_8_8 cell_8_9) true))
(assert
 (and (distinct cell_9_1 cell_9_2 cell_9_3 cell_9_4 cell_9_5 cell_9_6 cell_9_7 cell_9_8 cell_9_9) true))
(assert
 (and (distinct cell_1_1 cell_2_1 cell_3_1 cell_4_1 cell_5_1 cell_6_1 cell_7_1 cell_8_1 cell_9_1) true))
(assert
 (and (distinct cell_1_2 cell_2_2 cell_3_2 cell_4_2 cell_5_2 cell_6_2 cell_7_2 cell_8_2 cell_9_2) true))
(assert
 (and (distinct cell_1_3 cell_2_3 cell_3_3 cell_4_3 cell_5_3 cell_6_3 cell_7_3 cell_8_3 cell_9_3) true))
(assert
 (and (distinct cell_1_4 cell_2_4 cell_3_4 cell_4_4 cell_5_4 cell_6_4 cell_7_4 cell_8_4 cell_9_4) true))
(assert
 (and (distinct cell_1_5 cell_2_5 cell_3_5 cell_4_5 cell_5_5 cell_6_5 cell_7_5 cell_8_5 cell_9_5) true))
(assert
 (and (distinct cell_1_6 cell_2_6 cell_3_6 cell_4_6 cell_5_6 cell_6_6 cell_7_6 cell_8_6 cell_9_6) true))
(assert
 (and (distinct cell_1_7 cell_2_7 cell_3_7 cell_4_7 cell_5_7 cell_6_7 cell_7_7 cell_8_7 cell_9_7) true))
(assert
 (and (distinct cell_1_8 cell_2_8 cell_3_8 cell_4_8 cell_5_8 cell_6_8 cell_7_8 cell_8_8 cell_9_8) true))
(assert
 (and (distinct cell_1_9 cell_2_9 cell_3_9 cell_4_9 cell_5_9 cell_6_9 cell_7_9 cell_8_9 cell_9_9) true))
(assert
 (and (distinct cell_1_1 cell_1_2 cell_1_3 cell_2_1 cell_2_2 cell_2_3 cell_3_1 cell_3_2 cell_3_3) true))
(assert
 (and (distinct cell_1_4 cell_1_5 cell_1_6 cell_2_4 cell_2_5 cell_2_6 cell_3_4 cell_3_5 cell_3_6) true))
(assert
 (and (distinct cell_1_7 cell_1_8 cell_1_9 cell_2_7 cell_2_8 cell_2_9 cell_3_7 cell_3_8 cell_3_9) true))
(assert
 (and (distinct cell_4_1 cell_4_2 cell_4_3 cell_5_1 cell_5_2 cell_5_3 cell_6_1 cell_6_2 cell_6_3) true))
(assert
 (and (distinct cell_4_4 cell_4_5 cell_4_6 cell_5_4 cell_5_5 cell_5_6 cell_6_4 cell_6_5 cell_6_6) true))
(assert
 (and (distinct cell_4_7 cell_4_8 cell_4_9 cell_5_7 cell_5_8 cell_5_9 cell_6_7 cell_6_8 cell_6_9) true))
(assert
 (and (distinct cell_7_1 cell_7_2 cell_7_3 cell_8_1 cell_8_2 cell_8_3 cell_9_1 cell_9_2 cell_9_3) true))
(assert
 (and (distinct cell_7_4 cell_7_5 cell_7_6 cell_8_4 cell_8_5 cell_8_6 cell_9_4 cell_9_5 cell_9_6) true))
(assert
 (and (distinct cell_7_7 cell_7_8 cell_7_9 cell_8_7 cell_8_8 cell_8_9 cell_9_7 cell_9_8 cell_9_9) true))
(assert
 (let (($x9714 (and (distinct cell_5_9 cell_6_8 cell_7_7 cell_8_6) true)))
 (let (($x1467 (and (distinct cell_2_9 cell_3_8 cell_4_7 cell_5_6 cell_6_5 cell_7_4 cell_8_3 cell_9_2) true)))
 (let (($x4331 (and (distinct cell_1_8 cell_2_7 cell_3_6 cell_4_5 cell_5_4 cell_6_3 cell_7_2 cell_8_1) true)))
 (let (($x9055 (and (distinct cell_1_5 cell_2_4 cell_3_3 cell_4_2) true)))
 (let (($x6480 (and (distinct cell_5_1 cell_6_2 cell_7_3 cell_8_4) true)))
 (let (($x6274 (and (distinct cell_2_1 cell_3_2 cell_4_3 cell_5_4 cell_6_5 cell_7_6 cell_8_7 cell_9_8) true)))
 (let (($x8651 (and (distinct cell_1_2 cell_2_3 cell_3_4 cell_4_5 cell_5_6 cell_6_7 cell_7_8 cell_8_9) true)))
 (let (($x1673 (and (distinct cell_1_5 cell_2_6 cell_3_7 cell_4_8) true)))
 (and $x1673 $x8651 $x6274 $x6480 $x9055 $x4331 $x1467 $x9714))))))))))
(assert
 (and (distinct cell_4_9 2) true))
(check-sat)
